p cnf 14 24
-14 -13 -4 0
14 -12 -1 0
14 -10 4 0
14 -7 4 0
-14 -6 5 0
14 4 2 0
-14 -4 2 0
14 -4 1 0
-13 9 6 0
13 7 2 0
13 4 1 0
-12 11 8 0
-12 -9 7 0
12 9 4 0
12 -8 5 0
-12 -7 -4 0
-11 -3 -2 0
10 -7 4 0
9 8 4 0
9 -7 -6 0
-8 6 3 0
8 -5 -1 0
-6 2 -1 0
-5 4 1 0
